sat
(:added-eqs                   11965
 :arith-eq-adapter            1852
 :arith-bound-propagations-lp 276
 :arith-branch                4
 :arith-conflicts             168
 :arith-diseq                 3080
 :arith-fixed-eqs             596
 :arith-gcd-calls             35
 :arith-gcd-conflict          2
 :arith-gomory-cuts           1
 :arith-grobner-calls         45
 :arith-horner-calls          16
 :arith-lower                 7604
 :arith-make-feasible         1446
 :arith-max-columns           78
 :arith-max-rows              16
 :arith-nla-add-bounds        37
 :arith-nla-lemmas            45
 :arith-nla-propagate-bounds  24
 :arith-nla-propagate-eq      651
 :arith-nra-calls             42
 :arith-offset-eqs            128
 :arith-patches               33
 :arith-patches-success       28
 :arith-upper                 3999
 :binary-propagations         19207
 :card2bv-rewrites            85
 :conflicts                   254
 :decisions                   2484
 :del-clause                  422
 :final-checks                118
 :max-memory                  139.44
 :memory                      85.86
 :minimized-lits              1104
 :mk-bool-var                 2129
 :mk-clause                   720
 :mk-clause-binary            604
 :nlsat-conflicts             2865
 :nlsat-decisions             3
 :nlsat-propagations          21236
 :nlsat-stages                5985
 :num-allocs                  876059476
 :num-checks                  1
 :propagations                21196
 :restarts                    2
 :rlimit-count                2534208
 :sat-backjumps               501
 :sat-conflicts               501
 :sat-decisions               2039
 :sat-del-clause              42256
 :sat-elim-bool-vars-res      7892
 :sat-elim-clauses            2145
 :sat-elim-literals           1610
 :sat-minimized-lits          3460
 :sat-mk-clause-2ary          34804
 :sat-mk-clause-3ary          10463
 :sat-mk-clause-nary          69543
 :sat-mk-var                  18722
 :sat-probing-assigned        313
 :sat-propagations-2ary       410796
 :sat-propagations-nary       380753
 :sat-restarts                41
 :sat-scc-elim-binary         119
 :sat-scc-elim-vars           220
 :sat-subs-resolution         439
 :sat-subs-resolution-dyn     158
 :sat-subsumed                8951
 :sat-units                   1001
 :time                        1.08
 :total-time                  1.10)
